Optimize a model with 901 rows, 960 columns and 5858 nonzeros
Model has 1 quadratic constraint
Coefficient statistics:
  Matrix range    [1e+00, 3e+01]
  Objective range [1e+02, 7e+02]
  Bounds range    [1e+00, 3e+01]
  RHS range       [1e+00, 3e+01]
Presolve removed 0 rows and 32 columns
Presolve time: 0.01s
Presolved: 1743 rows, 1769 columns, 9222 nonzeros
Variable types: 0 continuous, 1769 integer (1740 binary)

Root relaxation: objective 2.400000e+02, 26 iterations, 0.00 seconds

    Nodes    |    Current Node    |     Objective Bounds      |     Work
 Expl Unexpl |  Obj  Depth IntInf | Incumbent    BestBd   Gap | It/Node Time

     0     0  240.00000    0   15          -  240.00000      -     -    0s
     0     0  240.00000    0   15          -  240.00000      -     -    0s
     0     0  240.00000    0   16          -  240.00000      -     -    0s
     0     0  240.00000    0   20          -  240.00000      -     -    0s
     0     0  240.00000    0   18          -  240.00000      -     -    0s
     0     0  240.00000    0   19          -  240.00000      -     -    0s
     0     0  240.00000    0   19          -  240.00000      -     -    0s
H    0     0                    1581.0000000  240.00000  84.8%     -    0s
     0     2  240.00000    0   19 1581.00000  240.00000  84.8%     -    0s
H  858   752                    1440.0000000 1371.26930  4.77%   2.8    2s

Cutting planes:
  Learned: 4

Explored 896 nodes (3212 simplex iterations) in 2.05 seconds
Thread count was 1 (of 4 available processors)

Optimal solution found (tolerance 1.00e-04)
Best objective 1.440000000000e+03, best bound 1.440000000000e+03, gap 0.0%
1440
(0,8) (10,0) (1,9) (17,1) (2,6) (13,2) (5,13) (23,5) (6,17) (9,7) (7,10) (8,23) 
